p cnf 1191
-20 -370
-21 -373
-22 -376
-23 -379
-24 -382
-25 -385
-26 -388
-27 -391
-28 -394
-29 -397
-30 -400
-31 -403
-32 -406
-33 -409
-34 -412
-35 -415
-36 -418
-37 -421
-38 -424
-39 425
-40 426
-41 427
-42 428
-43 429
-44 430
-45 431
-46 -21
-46 -22
21 22 46
-47 -23
-47 -24
23 24 47
-48 -25
-48 -26
25 26 48
-49 -27
-49 -28
27 28 49
-50 -29
-50 -30
29 30 50
-51 -31
-51 -32
31 32 51
-52 -33
-52 -34
33 34 52
-53 -35
-53 -36
35 36 53
-54 -37
-54 -38
37 38 54
-55 -39
-55 -40
39 40 55
-56 -41
-56 -42
41 42 56
-57 -43
-57 -44
43 44 57
-58 46
-58 47
-46 -47 58
-59 48
-59 49
-48 -49 59
-60 50
-60 51
-50 -51 60
-61 52
-61 53
-52 -53 61
-62 54
-62 55
-54 -55 62
-63 56
-63 57
-56 -57 63
-64 58
-64 59
-58 -59 64
-65 60
-65 61
-60 -61 65
-66 62
-66 63
-62 -63 66
-67 64
-67 65
-64 -65 67
-68 -45
-68 66
45 -66 68
-69 67
-69 68
-67 -68 69
-70 -20
-70 21
20 -21 70
-71 20
-71 -21
-20 21 71
-72 -70
-72 -71
70 71 72
-73 20
-73 21
-20 -21 73
-74 -20
-74 -72
20 72 74
-75 20
-75 72
-20 -72 75
-76 -74
-76 -75
74 75 76
-77 20
-77 -72
-20 72 77
-78 -73
-78 -77
73 77 78
-79 -21
-79 22
21 -22 79
-80 21
-80 -22
-21 22 80
-81 -79
-81 -80
79 80 81
-82 21
-82 22
-21 -22 82
-83 78
-83 -81
-78 81 83
-84 -78
-84 81
78 -81 84
-85 -83
-85 -84
83 84 85
-86 -78
-86 -81
78 81 86
-87 -82
-87 -86
82 86 87
-88 -22
-88 23
22 -23 88
-89 22
-89 -23
-22 23 89
-90 -88
-90 -89
88 89 90
-91 22
-91 23
-22 -23 91
-92 87
-92 -90
-87 90 92
-93 -87
-93 90
87 -90 93
-94 -92
-94 -93
92 93 94
-95 -87
-95 -90
87 90 95
-96 -91
-96 -95
91 95 96
-97 -23
-97 24
23 -24 97
-98 23
-98 -24
-23 24 98
-99 -97
-99 -98
97 98 99
-100 23
-100 24
-23 -24 100
-101 96
-101 -99
-96 99 101
-102 -96
-102 99
96 -99 102
-103 -101
-103 -102
101 102 103
-104 -96
-104 -99
96 99 104
-105 -100
-105 -104
100 104 105
-106 -24
-106 25
24 -25 106
-107 24
-107 -25
-24 25 107
-108 -106
-108 -107
106 107 108
-109 24
-109 25
-24 -25 109
-110 105
-110 -108
-105 108 110
-111 -105
-111 108
105 -108 111
-112 -110
-112 -111
110 111 112
-113 -105
-113 -108
105 108 113
-114 -109
-114 -113
109 113 114
-115 -25
-115 26
25 -26 115
-116 25
-116 -26
-25 26 116
-117 -115
-117 -116
115 116 117
-118 25
-118 26
-25 -26 118
-119 114
-119 -117
-114 117 119
-120 -114
-120 117
114 -117 120
-121 -119
-121 -120
119 120 121
-122 -114
-122 -117
114 117 122
-123 -118
-123 -122
118 122 123
-124 -26
-124 27
26 -27 124
-125 26
-125 -27
-26 27 125
-126 -124
-126 -125
124 125 126
-127 26
-127 27
-26 -27 127
-128 123
-128 -126
-123 126 128
-129 -123
-129 126
123 -126 129
-130 -128
-130 -129
128 129 130
-131 -123
-131 -126
123 126 131
-132 -127
-132 -131
127 131 132
-133 -27
-133 28
27 -28 133
-134 27
-134 -28
-27 28 134
-135 -133
-135 -134
133 134 135
-136 27
-136 28
-27 -28 136
-137 132
-137 -135
-132 135 137
-138 -132
-138 135
132 -135 138
-139 -137
-139 -138
137 138 139
-140 -132
-140 -135
132 135 140
-141 -136
-141 -140
136 140 141
-142 -28
-142 29
28 -29 142
-143 28
-143 -29
-28 29 143
-144 -142
-144 -143
142 143 144
-145 28
-145 29
-28 -29 145
-146 141
-146 -144
-141 144 146
-147 -141
-147 144
141 -144 147
-148 -146
-148 -147
146 147 148
-149 -141
-149 -144
141 144 149
-150 -145
-150 -149
145 149 150
-151 -29
-151 30
29 -30 151
-152 29
-152 -30
-29 30 152
-153 -151
-153 -152
151 152 153
-154 29
-154 30
-29 -30 154
-155 150
-155 -153
-150 153 155
-156 -150
-156 153
150 -153 156
-157 -155
-157 -156
155 156 157
-158 -150
-158 -153
150 153 158
-159 -154
-159 -158
154 158 159
-160 -30
-160 31
30 -31 160
-161 30
-161 -31
-30 31 161
-162 -160
-162 -161
160 161 162
-163 30
-163 31
-30 -31 163
-164 159
-164 -162
-159 162 164
-165 -159
-165 162
159 -162 165
-166 -164
-166 -165
164 165 166
-167 -159
-167 -162
159 162 167
-168 -163
-168 -167
163 167 168
-169 -31
-169 32
31 -32 169
-170 31
-170 -32
-31 32 170
-171 -169
-171 -170
169 170 171
-172 31
-172 32
-31 -32 172
-173 168
-173 -171
-168 171 173
-174 -168
-174 171
168 -171 174
-175 -173
-175 -174
173 174 175
-176 -168
-176 -171
168 171 176
-177 -172
-177 -176
172 176 177
-178 -32
-178 33
32 -33 178
-179 32
-179 -33
-32 33 179
-180 -178
-180 -179
178 179 180
-181 32
-181 33
-32 -33 181
-182 177
-182 -180
-177 180 182
-183 -177
-183 180
177 -180 183
-184 -182
-184 -183
182 183 184
-185 -177
-185 -180
177 180 185
-186 -181
-186 -185
181 185 186
-187 -33
-187 34
33 -34 187
-188 33
-188 -34
-33 34 188
-189 -187
-189 -188
187 188 189
-190 33
-190 34
-33 -34 190
-191 186
-191 -189
-186 189 191
-192 -186
-192 189
186 -189 192
-193 -191
-193 -192
191 192 193
-194 -186
-194 -189
186 189 194
-195 -190
-195 -194
190 194 195
-196 -34
-196 35
34 -35 196
-197 34
-197 -35
-34 35 197
-198 -196
-198 -197
196 197 198
-199 34
-199 35
-34 -35 199
-200 195
-200 -198
-195 198 200
-201 -195
-201 198
195 -198 201
-202 -200
-202 -201
200 201 202
-203 -195
-203 -198
195 198 203
-204 -199
-204 -203
199 203 204
-205 -35
-205 36
35 -36 205
-206 35
-206 -36
-35 36 206
-207 -205
-207 -206
205 206 207
-208 35
-208 36
-35 -36 208
-209 204
-209 -207
-204 207 209
-210 -204
-210 207
204 -207 210
-211 -209
-211 -210
209 210 211
-212 -204
-212 -207
204 207 212
-213 -208
-213 -212
208 212 213
-214 -36
-214 37
36 -37 214
-215 36
-215 -37
-36 37 215
-216 -214
-216 -215
214 215 216
-217 36
-217 37
-36 -37 217
-218 213
-218 -216
-213 216 218
-219 -213
-219 216
213 -216 219
-220 -218
-220 -219
218 219 220
-221 -213
-221 -216
213 216 221
-222 -217
-222 -221
217 221 222
-223 -37
-223 38
37 -38 223
-224 37
-224 -38
-37 38 224
-225 -223
-225 -224
223 224 225
-226 37
-226 38
-37 -38 226
-227 222
-227 -225
-222 225 227
-228 -222
-228 225
222 -225 228
-229 -227
-229 -228
227 228 229
-230 -222
-230 -225
222 225 230
-231 -226
-231 -230
226 230 231
-232 -38
-232 39
38 -39 232
-233 38
-233 -39
-38 39 233
-234 -232
-234 -233
232 233 234
-235 38
-235 39
-38 -39 235
-236 231
-236 -234
-231 234 236
-237 -231
-237 234
231 -234 237
-238 -236
-238 -237
236 237 238
-239 -231
-239 -234
231 234 239
-240 -235
-240 -239
235 239 240
-241 -39
-241 40
39 -40 241
-242 39
-242 -40
-39 40 242
-243 -241
-243 -242
241 242 243
-244 39
-244 40
-39 -40 244
-245 240
-245 -243
-240 243 245
-246 -240
-246 243
240 -243 246
-247 -245
-247 -246
245 246 247
-248 -240
-248 -243
240 243 248
-249 -244
-249 -248
244 248 249
-250 -40
-250 41
40 -41 250
-251 40
-251 -41
-40 41 251
-252 -250
-252 -251
250 251 252
-253 40
-253 41
-40 -41 253
-254 249
-254 -252
-249 252 254
-255 -249
-255 252
249 -252 255
-256 -254
-256 -255
254 255 256
-257 -249
-257 -252
249 252 257
-258 -253
-258 -257
253 257 258
-259 -41
-259 42
41 -42 259
-260 41
-260 -42
-41 42 260
-261 -259
-261 -260
259 260 261
-262 41
-262 42
-41 -42 262
-263 258
-263 -261
-258 261 263
-264 -258
-264 261
258 -261 264
-265 -263
-265 -264
263 264 265
-266 -258
-266 -261
258 261 266
-267 -262
-267 -266
262 266 267
-268 -42
-268 43
42 -43 268
-269 42
-269 -43
-42 43 269
-270 -268
-270 -269
268 269 270
-271 42
-271 43
-42 -43 271
-272 267
-272 -270
-267 270 272
-273 -267
-273 270
267 -270 273
-274 -272
-274 -273
272 273 274
-275 -267
-275 -270
267 270 275
-276 -271
-276 -275
271 275 276
-277 -43
-277 44
43 -44 277
-278 43
-278 -44
-43 44 278
-279 -277
-279 -278
277 278 279
-280 43
-280 44
-43 -44 280
-281 276
-281 -279
-276 279 281
-282 -276
-282 279
276 -279 282
-283 -281
-283 -282
281 282 283
-284 -276
-284 -279
276 279 284
-285 -280
-285 -284
280 284 285
-286 -44
-286 45
44 -45 286
-287 44
-287 -45
-44 45 287
-288 -286
-288 -287
286 287 288
-289 44
-289 45
-44 -45 289
-290 285
-290 -288
-285 288 290
-291 -285
-291 288
285 -288 291
-292 -290
-292 -291
290 291 292
-293 -285
-293 -288
285 288 293
-294 -289
-294 -293
289 293 294
-295 20
-295 -76
-20 76 295
-296 -20
-296 22
20 -22 296
-297 -295
-297 -296
295 296 297
-298 20
-298 -85
-20 85 298
-299 -20
-299 23
20 -23 299
-300 -298
-300 -299
298 299 300
-301 20
-301 -94
-20 94 301
-302 -20
-302 24
20 -24 302
-303 -301
-303 -302
301 302 303
-304 20
-304 -103
-20 103 304
-305 -20
-305 25
20 -25 305
-306 -304
-306 -305
304 305 306
-307 20
-307 -112
-20 112 307
-308 -20
-308 26
20 -26 308
-309 -307
-309 -308
307 308 309
-310 20
-310 -121
-20 121 310
-311 -20
-311 27
20 -27 311
-312 -310
-312 -311
310 311 312
-313 20
-313 -130
-20 130 313
-314 -20
-314 28
20 -28 314
-315 -313
-315 -314
313 314 315
-316 20
-316 -139
-20 139 316
-317 -20
-317 29
20 -29 317
-318 -316
-318 -317
316 317 318
-319 20
-319 -148
-20 148 319
-320 -20
-320 30
20 -30 320
-321 -319
-321 -320
319 320 321
-322 20
-322 -157
-20 157 322
-323 -20
-323 31
20 -31 323
-324 -322
-324 -323
322 323 324
-325 20
-325 -166
-20 166 325
-326 -20
-326 32
20 -32 326
-327 -325
-327 -326
325 326 327
-328 20
-328 -175
-20 175 328
-329 -20
-329 33
20 -33 329
-330 -328
-330 -329
328 329 330
-331 20
-331 -184
-20 184 331
-332 -20
-332 34
20 -34 332
-333 -331
-333 -332
331 332 333
-334 20
-334 -193
-20 193 334
-335 -20
-335 35
20 -35 335
-336 -334
-336 -335
334 335 336
-337 20
-337 -202
-20 202 337
-338 -20
-338 36
20 -36 338
-339 -337
-339 -338
337 338 339
-340 20
-340 -211
-20 211 340
-341 -20
-341 37
20 -37 341
-342 -340
-342 -341
340 341 342
-343 20
-343 -220
-20 220 343
-344 -20
-344 38
20 -38 344
-345 -343
-345 -344
343 344 345
-346 20
-346 -229
-20 229 346
-347 -20
-347 39
20 -39 347
-348 -346
-348 -347
346 347 348
-349 20
-349 -238
-20 238 349
-350 -20
-350 40
20 -40 350
-351 -349
-351 -350
349 350 351
-352 20
-352 -247
-20 247 352
-353 -20
-353 41
20 -41 353
-354 -352
-354 -353
352 353 354
-355 20
-355 -256
-20 256 355
-356 -20
-356 42
20 -42 356
-357 -355
-357 -356
355 356 357
-358 20
-358 -265
-20 265 358
-359 -20
-359 43
20 -43 359
-360 -358
-360 -359
358 359 360
-361 20
-361 -274
-20 274 361
-362 -20
-362 44
20 -44 362
-363 -361
-363 -362
361 362 363
-364 20
-364 -283
-20 283 364
-365 -20
-365 45
20 -45 365
-366 -364
-366 -365
364 365 366
-367 20
-367 -292
-20 292 367
-368 1
-368 69
-1 -69 368
-369 -69
-369 70
69 -70 369
-370 -368
-370 -369
368 369 370
-371 2
-371 69
-2 -69 371
-372 -69
-372 -297
69 297 372
-373 -371
-373 -372
371 372 373
-374 3
-374 69
-3 -69 374
-375 -69
-375 -300
69 300 375
-376 -374
-376 -375
374 375 376
-377 4
-377 69
-4 -69 377
-378 -69
-378 -303
69 303 378
-379 -377
-379 -378
377 378 379
-380 5
-380 69
-5 -69 380
-381 -69
-381 -306
69 306 381
-382 -380
-382 -381
380 381 382
-383 6
-383 69
-6 -69 383
-384 -69
-384 -309
69 309 384
-385 -383
-385 -384
383 384 385
-386 7
-386 69
-7 -69 386
-387 -69
-387 -312
69 312 387
-388 -386
-388 -387
386 387 388
-389 8
-389 69
-8 -69 389
-390 -69
-390 -315
69 315 390
-391 -389
-391 -390
389 390 391
-392 9
-392 69
-9 -69 392
-393 -69
-393 -318
69 318 393
-394 -392
-394 -393
392 393 394
-395 10
-395 69
-10 -69 395
-396 -69
-396 -321
69 321 396
-397 -395
-397 -396
395 396 397
-398 11
-398 69
-11 -69 398
-399 -69
-399 -324
69 324 399
-400 -398
-400 -399
398 399 400
-401 12
-401 69
-12 -69 401
-402 -69
-402 -327
69 327 402
-403 -401
-403 -402
401 402 403
-404 13
-404 69
-13 -69 404
-405 -69
-405 -330
69 330 405
-406 -404
-406 -405
404 405 406
-407 14
-407 69
-14 -69 407
-408 -69
-408 -333
69 333 408
-409 -407
-409 -408
407 408 409
-410 15
-410 69
-15 -69 410
-411 -69
-411 -336
69 336 411
-412 -410
-412 -411
410 411 412
-413 16
-413 69
-16 -69 413
-414 -69
-414 -339
69 339 414
-415 -413
-415 -414
413 414 415
-416 17
-416 69
-17 -69 416
-417 -69
-417 -342
69 342 417
-418 -416
-418 -417
416 417 418
-419 18
-419 69
-18 -69 419
-420 -69
-420 -345
69 345 420
-421 -419
-421 -420
419 420 421
-422 19
-422 69
-19 -69 422
-423 -69
-423 -348
69 348 423
-424 -422
-424 -423
422 423 424
-425 -69
-425 -351
69 351 425
-426 -69
-426 -354
69 354 426
-427 -69
-427 -357
69 357 427
-428 -69
-428 -360
69 360 428
-429 -69
-429 -363
69 363 429
-430 -69
-430 -366
69 366 430
-431 -69
-431 367
69 -367 431
-432 -45
-432 294
45 -294 432
-433 20
-433 -432
-20 432 433
433
